data;

set VENENOS := alfa beta;

param disponibilidade_alfa := 500;
param disponibilidade_beta := 2000;

param quantidade_homens := 20;
param quantidade_mulheres := 10;

param proporcao_veneno :=
    alfa 3
    beta 1;

end;